(set-info :category "industrial")
(set-info :status sat)
(declare-fun x00 () (_ BitVec 8))
(declare-fun x02 () (_ BitVec 8))
(declare-fun x04 () (_ BitVec 8))
(declare-fun x05 () (_ BitVec 8))
(declare-fun x06 () (_ BitVec 8))
(declare-fun x08 () (_ BitVec 8))
(declare-fun x10 () (_ BitVec 8))
(declare-fun x11 () (_ BitVec 8))
(declare-fun x14 () (_ BitVec 8))
(declare-fun x18 () (_ BitVec 8))
(declare-fun x21 () (_ BitVec 8))
(declare-fun x22 () (_ BitVec 8))
(declare-fun x23 () (_ BitVec 8))
(declare-fun x25 () (_ BitVec 8))
(declare-fun x26 () (_ BitVec 8))
(declare-fun x31 () (_ BitVec 8))
(declare-fun x34 () (_ BitVec 8))
(declare-fun x35 () (_ BitVec 8))
(declare-fun x37 () (_ BitVec 8))
(declare-fun x42 () (_ BitVec 8))
(declare-fun x43 () (_ BitVec 8))
(declare-fun x44 () (_ BitVec 8))
(declare-fun x46 () (_ BitVec 8))
(declare-fun x47 () (_ BitVec 8))
(declare-fun x50 () (_ BitVec 8))
(declare-fun x51 () (_ BitVec 8))
(declare-fun x52 () (_ BitVec 8))
(declare-fun x53 () (_ BitVec 8))
(declare-fun x55 () (_ BitVec 8))
(declare-fun x56 () (_ BitVec 8))
(declare-fun x58 () (_ BitVec 8))
(declare-fun x62 () (_ BitVec 8))
(declare-fun x64 () (_ BitVec 8))
(declare-fun x65 () (_ BitVec 8))
(declare-fun x67 () (_ BitVec 8))
(declare-fun x68 () (_ BitVec 8))
(declare-fun x70 () (_ BitVec 8))
(declare-fun x71 () (_ BitVec 8))
(declare-fun x72 () (_ BitVec 8))
(declare-fun x75 () (_ BitVec 8))
(declare-fun x76 () (_ BitVec 8))
(declare-fun x77 () (_ BitVec 8))
(declare-fun x81 () (_ BitVec 8))
(declare-fun x82 () (_ BitVec 8))
(declare-fun x84 () (_ BitVec 8))
(declare-fun x85 () (_ BitVec 8))
(declare-fun x86 () (_ BitVec 8))
(declare-fun x88 () (_ BitVec 8))
(assert (bvult x00 (_ bv9 8)))
(assert (bvult x02 (_ bv9 8)))
(assert (bvult x04 (_ bv9 8)))
(assert (bvult x05 (_ bv9 8)))
(assert (bvult x06 (_ bv9 8)))
(assert (bvult x08 (_ bv9 8)))
(assert (bvult x10 (_ bv9 8)))
(assert (bvult x11 (_ bv9 8)))
(assert (bvult x14 (_ bv9 8)))
(assert (bvult x18 (_ bv9 8)))
(assert (bvult x21 (_ bv9 8)))
(assert (bvult x22 (_ bv9 8)))
(assert (bvult x23 (_ bv9 8)))
(assert (bvult x25 (_ bv9 8)))
(assert (bvult x26 (_ bv9 8)))
(assert (bvult x31 (_ bv9 8)))
(assert (bvult x34 (_ bv9 8)))
(assert (bvult x35 (_ bv9 8)))
(assert (bvult x37 (_ bv9 8)))
(assert (bvult x42 (_ bv9 8)))
(assert (bvult x43 (_ bv9 8)))
(assert (bvult x44 (_ bv9 8)))
(assert (bvult x46 (_ bv9 8)))
(assert (bvult x47 (_ bv9 8)))
(assert (bvult x50 (_ bv9 8)))
(assert (bvult x51 (_ bv9 8)))
(assert (bvult x52 (_ bv9 8)))
(assert (bvult x53 (_ bv9 8)))
(assert (bvult x55 (_ bv9 8)))
(assert (bvult x56 (_ bv9 8)))
(assert (bvult x58 (_ bv9 8)))
(assert (bvult x62 (_ bv9 8)))
(assert (bvult x64 (_ bv9 8)))
(assert (bvult x65 (_ bv9 8)))
(assert (bvult x67 (_ bv9 8)))
(assert (bvult x68 (_ bv9 8)))
(assert (bvult x70 (_ bv9 8)))
(assert (bvult x71 (_ bv9 8)))
(assert (bvult x72 (_ bv9 8)))
(assert (bvult x75 (_ bv9 8)))
(assert (bvult x76 (_ bv9 8)))
(assert (bvult x77 (_ bv9 8)))
(assert (bvult x81 (_ bv9 8)))
(assert (bvult x82 (_ bv9 8)))
(assert (bvult x84 (_ bv9 8)))
(assert (bvult x85 (_ bv9 8)))
(assert (bvult x86 (_ bv9 8)))
(assert (bvult x88 (_ bv9 8)))
(assert (not (= x00 (_ bv7 8))))
(assert (not (= x00 x02)))
(assert (not (= x00 (_ bv3 8))))
(assert (not (= x00 x04)))
(assert (not (= x00 x05)))
(assert (not (= x00 x06)))
(assert (not (= x00 (_ bv4 8))))
(assert (not (= x00 x08)))
(assert (not (= (_ bv7 8) x02)))
(assert (not (= (_ bv7 8) (_ bv3 8))))
(assert (not (= (_ bv7 8) x04)))
(assert (not (= (_ bv7 8) x05)))
(assert (not (= (_ bv7 8) x06)))
(assert (not (= (_ bv7 8) (_ bv4 8))))
(assert (not (= (_ bv7 8) x08)))
(assert (not (= x02 (_ bv3 8))))
(assert (not (= x02 x04)))
(assert (not (= x02 x05)))
(assert (not (= x02 x06)))
(assert (not (= x02 (_ bv4 8))))
(assert (not (= x02 x08)))
(assert (not (= (_ bv3 8) x04)))
(assert (not (= (_ bv3 8) x05)))
(assert (not (= (_ bv3 8) x06)))
(assert (not (= (_ bv3 8) (_ bv4 8))))
(assert (not (= (_ bv3 8) x08)))
(assert (not (= x04 x05)))
(assert (not (= x04 x06)))
(assert (not (= x04 (_ bv4 8))))
(assert (not (= x04 x08)))
(assert (not (= x05 x06)))
(assert (not (= x05 (_ bv4 8))))
(assert (not (= x05 x08)))
(assert (not (= x06 (_ bv4 8))))
(assert (not (= x06 x08)))
(assert (not (= (_ bv4 8) x08)))
(assert (not (= x10 x11)))
(assert (not (= x10 (_ bv6 8))))
(assert (not (= x10 (_ bv1 8))))
(assert (not (= x10 x14)))
(assert (not (= x10 (_ bv2 8))))
(assert (not (= x10 (_ bv8 8))))
(assert (not (= x10 (_ bv3 8))))
(assert (not (= x10 x18)))
(assert (not (= x11 (_ bv6 8))))
(assert (not (= x11 (_ bv1 8))))
(assert (not (= x11 x14)))
(assert (not (= x11 (_ bv2 8))))
(assert (not (= x11 (_ bv8 8))))
(assert (not (= x11 (_ bv3 8))))
(assert (not (= x11 x18)))
(assert (not (= (_ bv6 8) (_ bv1 8))))
(assert (not (= (_ bv6 8) x14)))
(assert (not (= (_ bv6 8) (_ bv2 8))))
(assert (not (= (_ bv6 8) (_ bv8 8))))
(assert (not (= (_ bv6 8) (_ bv3 8))))
(assert (not (= (_ bv6 8) x18)))
(assert (not (= (_ bv1 8) x14)))
(assert (not (= (_ bv1 8) (_ bv2 8))))
(assert (not (= (_ bv1 8) (_ bv8 8))))
(assert (not (= (_ bv1 8) (_ bv3 8))))
(assert (not (= (_ bv1 8) x18)))
(assert (not (= x14 (_ bv2 8))))
(assert (not (= x14 (_ bv8 8))))
(assert (not (= x14 (_ bv3 8))))
(assert (not (= x14 x18)))
(assert (not (= (_ bv2 8) (_ bv8 8))))
(assert (not (= (_ bv2 8) (_ bv3 8))))
(assert (not (= (_ bv2 8) x18)))
(assert (not (= (_ bv8 8) (_ bv3 8))))
(assert (not (= (_ bv8 8) x18)))
(assert (not (= (_ bv3 8) x18)))
(assert (not (= (_ bv9 8) x21)))
(assert (not (= (_ bv9 8) x22)))
(assert (not (= (_ bv9 8) x23)))
(assert (not (= (_ bv9 8) (_ bv4 8))))
(assert (not (= (_ bv9 8) x25)))
(assert (not (= (_ bv9 8) x26)))
(assert (not (= (_ bv9 8) (_ bv1 8))))
(assert (not (= (_ bv9 8) (_ bv2 8))))
(assert (not (= x21 x22)))
(assert (not (= x21 x23)))
(assert (not (= x21 (_ bv4 8))))
(assert (not (= x21 x25)))
(assert (not (= x21 x26)))
(assert (not (= x21 (_ bv1 8))))
(assert (not (= x21 (_ bv2 8))))
(assert (not (= x22 x23)))
(assert (not (= x22 (_ bv4 8))))
(assert (not (= x22 x25)))
(assert (not (= x22 x26)))
(assert (not (= x22 (_ bv1 8))))
(assert (not (= x22 (_ bv2 8))))
(assert (not (= x23 (_ bv4 8))))
(assert (not (= x23 x25)))
(assert (not (= x23 x26)))
(assert (not (= x23 (_ bv1 8))))
(assert (not (= x23 (_ bv2 8))))
(assert (not (= (_ bv4 8) x25)))
(assert (not (= (_ bv4 8) x26)))
(assert (not (= (_ bv4 8) (_ bv1 8))))
(assert (not (= (_ bv4 8) (_ bv2 8))))
(assert (not (= x25 x26)))
(assert (not (= x25 (_ bv1 8))))
(assert (not (= x25 (_ bv2 8))))
(assert (not (= x26 (_ bv1 8))))
(assert (not (= x26 (_ bv2 8))))
(assert (not (= (_ bv1 8) (_ bv2 8))))
(assert (not (= (_ bv8 8) x31)))
(assert (not (= (_ bv8 8) (_ bv2 8))))
(assert (not (= (_ bv8 8) (_ bv9 8))))
(assert (not (= (_ bv8 8) x34)))
(assert (not (= (_ bv8 8) x35)))
(assert (not (= (_ bv8 8) (_ bv6 8))))
(assert (not (= (_ bv8 8) x37)))
(assert (not (= (_ bv8 8) (_ bv4 8))))
(assert (not (= x31 (_ bv2 8))))
(assert (not (= x31 (_ bv9 8))))
(assert (not (= x31 x34)))
(assert (not (= x31 x35)))
(assert (not (= x31 (_ bv6 8))))
(assert (not (= x31 x37)))
(assert (not (= x31 (_ bv4 8))))
(assert (not (= (_ bv2 8) (_ bv9 8))))
(assert (not (= (_ bv2 8) x34)))
(assert (not (= (_ bv2 8) x35)))
(assert (not (= (_ bv2 8) (_ bv6 8))))
(assert (not (= (_ bv2 8) x37)))
(assert (not (= (_ bv2 8) (_ bv4 8))))
(assert (not (= (_ bv9 8) x34)))
(assert (not (= (_ bv9 8) x35)))
(assert (not (= (_ bv9 8) (_ bv6 8))))
(assert (not (= (_ bv9 8) x37)))
(assert (not (= (_ bv9 8) (_ bv4 8))))
(assert (not (= x34 x35)))
(assert (not (= x34 (_ bv6 8))))
(assert (not (= x34 x37)))
(assert (not (= x34 (_ bv4 8))))
(assert (not (= x35 (_ bv6 8))))
(assert (not (= x35 x37)))
(assert (not (= x35 (_ bv4 8))))
(assert (not (= (_ bv6 8) x37)))
(assert (not (= (_ bv6 8) (_ bv4 8))))
(assert (not (= x37 (_ bv4 8))))
(assert (not (= (_ bv4 8) (_ bv1 8))))
(assert (not (= (_ bv4 8) x42)))
(assert (not (= (_ bv4 8) x43)))
(assert (not (= (_ bv4 8) x44)))
(assert (not (= (_ bv4 8) (_ bv5 8))))
(assert (not (= (_ bv4 8) x46)))
(assert (not (= (_ bv4 8) x47)))
(assert (not (= (_ bv4 8) (_ bv8 8))))
(assert (not (= (_ bv1 8) x42)))
(assert (not (= (_ bv1 8) x43)))
(assert (not (= (_ bv1 8) x44)))
(assert (not (= (_ bv1 8) (_ bv5 8))))
(assert (not (= (_ bv1 8) x46)))
(assert (not (= (_ bv1 8) x47)))
(assert (not (= (_ bv1 8) (_ bv8 8))))
(assert (not (= x42 x43)))
(assert (not (= x42 x44)))
(assert (not (= x42 (_ bv5 8))))
(assert (not (= x42 x46)))
(assert (not (= x42 x47)))
(assert (not (= x42 (_ bv8 8))))
(assert (not (= x43 x44)))
(assert (not (= x43 (_ bv5 8))))
(assert (not (= x43 x46)))
(assert (not (= x43 x47)))
(assert (not (= x43 (_ bv8 8))))
(assert (not (= x44 (_ bv5 8))))
(assert (not (= x44 x46)))
(assert (not (= x44 x47)))
(assert (not (= x44 (_ bv8 8))))
(assert (not (= (_ bv5 8) x46)))
(assert (not (= (_ bv5 8) x47)))
(assert (not (= (_ bv5 8) (_ bv8 8))))
(assert (not (= x46 x47)))
(assert (not (= x46 (_ bv8 8))))
(assert (not (= x47 (_ bv8 8))))
(assert (not (= x50 x51)))
(assert (not (= x50 x52)))
(assert (not (= x50 x53)))
(assert (not (= x50 (_ bv3 8))))
(assert (not (= x50 x55)))
(assert (not (= x50 x56)))
(assert (not (= x50 (_ bv7 8))))
(assert (not (= x50 x58)))
(assert (not (= x51 x52)))
(assert (not (= x51 x53)))
(assert (not (= x51 (_ bv3 8))))
(assert (not (= x51 x55)))
(assert (not (= x51 x56)))
(assert (not (= x51 (_ bv7 8))))
(assert (not (= x51 x58)))
(assert (not (= x52 x53)))
(assert (not (= x52 (_ bv3 8))))
(assert (not (= x52 x55)))
(assert (not (= x52 x56)))
(assert (not (= x52 (_ bv7 8))))
(assert (not (= x52 x58)))
(assert (not (= x53 (_ bv3 8))))
(assert (not (= x53 x55)))
(assert (not (= x53 x56)))
(assert (not (= x53 (_ bv7 8))))
(assert (not (= x53 x58)))
(assert (not (= (_ bv3 8) x55)))
(assert (not (= (_ bv3 8) x56)))
(assert (not (= (_ bv3 8) (_ bv7 8))))
(assert (not (= (_ bv3 8) x58)))
(assert (not (= x55 x56)))
(assert (not (= x55 (_ bv7 8))))
(assert (not (= x55 x58)))
(assert (not (= x56 (_ bv7 8))))
(assert (not (= x56 x58)))
(assert (not (= (_ bv7 8) x58)))
(assert (not (= (_ bv3 8) (_ bv5 8))))
(assert (not (= (_ bv3 8) x62)))
(assert (not (= (_ bv3 8) (_ bv6 8))))
(assert (not (= (_ bv3 8) x64)))
(assert (not (= (_ bv3 8) x65)))
(assert (not (= (_ bv3 8) (_ bv9 8))))
(assert (not (= (_ bv3 8) x67)))
(assert (not (= (_ bv3 8) x68)))
(assert (not (= (_ bv5 8) x62)))
(assert (not (= (_ bv5 8) (_ bv6 8))))
(assert (not (= (_ bv5 8) x64)))
(assert (not (= (_ bv5 8) x65)))
(assert (not (= (_ bv5 8) (_ bv9 8))))
(assert (not (= (_ bv5 8) x67)))
(assert (not (= (_ bv5 8) x68)))
(assert (not (= x62 (_ bv6 8))))
(assert (not (= x62 x64)))
(assert (not (= x62 x65)))
(assert (not (= x62 (_ bv9 8))))
(assert (not (= x62 x67)))
(assert (not (= x62 x68)))
(assert (not (= (_ bv6 8) x64)))
(assert (not (= (_ bv6 8) x65)))
(assert (not (= (_ bv6 8) (_ bv9 8))))
(assert (not (= (_ bv6 8) x67)))
(assert (not (= (_ bv6 8) x68)))
(assert (not (= x64 x65)))
(assert (not (= x64 (_ bv9 8))))
(assert (not (= x64 x67)))
(assert (not (= x64 x68)))
(assert (not (= x65 (_ bv9 8))))
(assert (not (= x65 x67)))
(assert (not (= x65 x68)))
(assert (not (= (_ bv9 8) x67)))
(assert (not (= (_ bv9 8) x68)))
(assert (not (= x67 x68)))
(assert (not (= x70 x71)))
(assert (not (= x70 x72)))
(assert (not (= x70 (_ bv4 8))))
(assert (not (= x70 (_ bv8 8))))
(assert (not (= x70 x75)))
(assert (not (= x70 x76)))
(assert (not (= x70 x77)))
(assert (not (= x70 (_ bv5 8))))
(assert (not (= x71 x72)))
(assert (not (= x71 (_ bv4 8))))
(assert (not (= x71 (_ bv8 8))))
(assert (not (= x71 x75)))
(assert (not (= x71 x76)))
(assert (not (= x71 x77)))
(assert (not (= x71 (_ bv5 8))))
(assert (not (= x72 (_ bv4 8))))
(assert (not (= x72 (_ bv8 8))))
(assert (not (= x72 x75)))
(assert (not (= x72 x76)))
(assert (not (= x72 x77)))
(assert (not (= x72 (_ bv5 8))))
(assert (not (= (_ bv4 8) (_ bv8 8))))
(assert (not (= (_ bv4 8) x75)))
(assert (not (= (_ bv4 8) x76)))
(assert (not (= (_ bv4 8) x77)))
(assert (not (= (_ bv4 8) (_ bv5 8))))
(assert (not (= (_ bv8 8) x75)))
(assert (not (= (_ bv8 8) x76)))
(assert (not (= (_ bv8 8) x77)))
(assert (not (= (_ bv8 8) (_ bv5 8))))
(assert (not (= x75 x76)))
(assert (not (= x75 x77)))
(assert (not (= x75 (_ bv5 8))))
(assert (not (= x76 x77)))
(assert (not (= x76 (_ bv5 8))))
(assert (not (= x77 (_ bv5 8))))
(assert (not (= (_ bv1 8) x81)))
(assert (not (= (_ bv1 8) x82)))
(assert (not (= (_ bv1 8) (_ bv7 8))))
(assert (not (= (_ bv1 8) x84)))
(assert (not (= (_ bv1 8) x85)))
(assert (not (= (_ bv1 8) x86)))
(assert (not (= (_ bv1 8) (_ bv2 8))))
(assert (not (= (_ bv1 8) x88)))
(assert (not (= x81 x82)))
(assert (not (= x81 (_ bv7 8))))
(assert (not (= x81 x84)))
(assert (not (= x81 x85)))
(assert (not (= x81 x86)))
(assert (not (= x81 (_ bv2 8))))
(assert (not (= x81 x88)))
(assert (not (= x82 (_ bv7 8))))
(assert (not (= x82 x84)))
(assert (not (= x82 x85)))
(assert (not (= x82 x86)))
(assert (not (= x82 (_ bv2 8))))
(assert (not (= x82 x88)))
(assert (not (= (_ bv7 8) x84)))
(assert (not (= (_ bv7 8) x85)))
(assert (not (= (_ bv7 8) x86)))
(assert (not (= (_ bv7 8) (_ bv2 8))))
(assert (not (= (_ bv7 8) x88)))
(assert (not (= x84 x85)))
(assert (not (= x84 x86)))
(assert (not (= x84 (_ bv2 8))))
(assert (not (= x84 x88)))
(assert (not (= x85 x86)))
(assert (not (= x85 (_ bv2 8))))
(assert (not (= x85 x88)))
(assert (not (= x86 (_ bv2 8))))
(assert (not (= x86 x88)))
(assert (not (= (_ bv2 8) x88)))
(assert (not (= x00 x10)))
(assert (not (= x00 (_ bv9 8))))
(assert (not (= x00 (_ bv8 8))))
(assert (not (= x00 (_ bv4 8))))
(assert (not (= x00 x50)))
(assert (not (= x00 (_ bv3 8))))
(assert (not (= x00 x70)))
(assert (not (= x00 (_ bv1 8))))
(assert (not (= x10 (_ bv9 8))))
(assert (not (= x10 (_ bv8 8))))
(assert (not (= x10 (_ bv4 8))))
(assert (not (= x10 x50)))
(assert (not (= x10 (_ bv3 8))))
(assert (not (= x10 x70)))
(assert (not (= x10 (_ bv1 8))))
(assert (not (= (_ bv9 8) (_ bv8 8))))
(assert (not (= (_ bv9 8) (_ bv4 8))))
(assert (not (= (_ bv9 8) x50)))
(assert (not (= (_ bv9 8) (_ bv3 8))))
(assert (not (= (_ bv9 8) x70)))
(assert (not (= (_ bv9 8) (_ bv1 8))))
(assert (not (= (_ bv8 8) (_ bv4 8))))
(assert (not (= (_ bv8 8) x50)))
(assert (not (= (_ bv8 8) (_ bv3 8))))
(assert (not (= (_ bv8 8) x70)))
(assert (not (= (_ bv8 8) (_ bv1 8))))
(assert (not (= (_ bv4 8) x50)))
(assert (not (= (_ bv4 8) (_ bv3 8))))
(assert (not (= (_ bv4 8) x70)))
(assert (not (= (_ bv4 8) (_ bv1 8))))
(assert (not (= x50 (_ bv3 8))))
(assert (not (= x50 x70)))
(assert (not (= x50 (_ bv1 8))))
(assert (not (= (_ bv3 8) x70)))
(assert (not (= (_ bv3 8) (_ bv1 8))))
(assert (not (= x70 (_ bv1 8))))
(assert (not (= (_ bv7 8) x11)))
(assert (not (= (_ bv7 8) x21)))
(assert (not (= (_ bv7 8) x31)))
(assert (not (= (_ bv7 8) (_ bv1 8))))
(assert (not (= (_ bv7 8) x51)))
(assert (not (= (_ bv7 8) (_ bv5 8))))
(assert (not (= (_ bv7 8) x71)))
(assert (not (= (_ bv7 8) x81)))
(assert (not (= x11 x21)))
(assert (not (= x11 x31)))
(assert (not (= x11 (_ bv1 8))))
(assert (not (= x11 x51)))
(assert (not (= x11 (_ bv5 8))))
(assert (not (= x11 x71)))
(assert (not (= x11 x81)))
(assert (not (= x21 x31)))
(assert (not (= x21 (_ bv1 8))))
(assert (not (= x21 x51)))
(assert (not (= x21 (_ bv5 8))))
(assert (not (= x21 x71)))
(assert (not (= x21 x81)))
(assert (not (= x31 (_ bv1 8))))
(assert (not (= x31 x51)))
(assert (not (= x31 (_ bv5 8))))
(assert (not (= x31 x71)))
(assert (not (= x31 x81)))
(assert (not (= (_ bv1 8) x51)))
(assert (not (= (_ bv1 8) (_ bv5 8))))
(assert (not (= (_ bv1 8) x71)))
(assert (not (= (_ bv1 8) x81)))
(assert (not (= x51 (_ bv5 8))))
(assert (not (= x51 x71)))
(assert (not (= x51 x81)))
(assert (not (= (_ bv5 8) x71)))
(assert (not (= (_ bv5 8) x81)))
(assert (not (= x71 x81)))
(assert (not (= x02 (_ bv6 8))))
(assert (not (= x02 x22)))
(assert (not (= x02 (_ bv2 8))))
(assert (not (= x02 x42)))
(assert (not (= x02 x52)))
(assert (not (= x02 x62)))
(assert (not (= x02 x72)))
(assert (not (= x02 x82)))
(assert (not (= (_ bv6 8) x22)))
(assert (not (= (_ bv6 8) (_ bv2 8))))
(assert (not (= (_ bv6 8) x42)))
(assert (not (= (_ bv6 8) x52)))
(assert (not (= (_ bv6 8) x62)))
(assert (not (= (_ bv6 8) x72)))
(assert (not (= (_ bv6 8) x82)))
(assert (not (= x22 (_ bv2 8))))
(assert (not (= x22 x42)))
(assert (not (= x22 x52)))
(assert (not (= x22 x62)))
(assert (not (= x22 x72)))
(assert (not (= x22 x82)))
(assert (not (= (_ bv2 8) x42)))
(assert (not (= (_ bv2 8) x52)))
(assert (not (= (_ bv2 8) x62)))
(assert (not (= (_ bv2 8) x72)))
(assert (not (= (_ bv2 8) x82)))
(assert (not (= x42 x52)))
(assert (not (= x42 x62)))
(assert (not (= x42 x72)))
(assert (not (= x42 x82)))
(assert (not (= x52 x62)))
(assert (not (= x52 x72)))
(assert (not (= x52 x82)))
(assert (not (= x62 x72)))
(assert (not (= x62 x82)))
(assert (not (= x72 x82)))
(assert (not (= (_ bv3 8) (_ bv1 8))))
(assert (not (= (_ bv3 8) x23)))
(assert (not (= (_ bv3 8) (_ bv9 8))))
(assert (not (= (_ bv3 8) x43)))
(assert (not (= (_ bv3 8) x53)))
(assert (not (= (_ bv3 8) (_ bv6 8))))
(assert (not (= (_ bv3 8) (_ bv4 8))))
(assert (not (= (_ bv3 8) (_ bv7 8))))
(assert (not (= (_ bv1 8) x23)))
(assert (not (= (_ bv1 8) (_ bv9 8))))
(assert (not (= (_ bv1 8) x43)))
(assert (not (= (_ bv1 8) x53)))
(assert (not (= (_ bv1 8) (_ bv6 8))))
(assert (not (= (_ bv1 8) (_ bv4 8))))
(assert (not (= (_ bv1 8) (_ bv7 8))))
(assert (not (= x23 (_ bv9 8))))
(assert (not (= x23 x43)))
(assert (not (= x23 x53)))
(assert (not (= x23 (_ bv6 8))))
(assert (not (= x23 (_ bv4 8))))
(assert (not (= x23 (_ bv7 8))))
(assert (not (= (_ bv9 8) x43)))
(assert (not (= (_ bv9 8) x53)))
(assert (not (= (_ bv9 8) (_ bv6 8))))
(assert (not (= (_ bv9 8) (_ bv4 8))))
(assert (not (= (_ bv9 8) (_ bv7 8))))
(assert (not (= x43 x53)))
(assert (not (= x43 (_ bv6 8))))
(assert (not (= x43 (_ bv4 8))))
(assert (not (= x43 (_ bv7 8))))
(assert (not (= x53 (_ bv6 8))))
(assert (not (= x53 (_ bv4 8))))
(assert (not (= x53 (_ bv7 8))))
(assert (not (= (_ bv6 8) (_ bv4 8))))
(assert (not (= (_ bv6 8) (_ bv7 8))))
(assert (not (= (_ bv4 8) (_ bv7 8))))
(assert (not (= x04 x14)))
(assert (not (= x04 (_ bv4 8))))
(assert (not (= x04 x34)))
(assert (not (= x04 x44)))
(assert (not (= x04 (_ bv3 8))))
(assert (not (= x04 x64)))
(assert (not (= x04 (_ bv8 8))))
(assert (not (= x04 x84)))
(assert (not (= x14 (_ bv4 8))))
(assert (not (= x14 x34)))
(assert (not (= x14 x44)))
(assert (not (= x14 (_ bv3 8))))
(assert (not (= x14 x64)))
(assert (not (= x14 (_ bv8 8))))
(assert (not (= x14 x84)))
(assert (not (= (_ bv4 8) x34)))
(assert (not (= (_ bv4 8) x44)))
(assert (not (= (_ bv4 8) (_ bv3 8))))
(assert (not (= (_ bv4 8) x64)))
(assert (not (= (_ bv4 8) (_ bv8 8))))
(assert (not (= (_ bv4 8) x84)))
(assert (not (= x34 x44)))
(assert (not (= x34 (_ bv3 8))))
(assert (not (= x34 x64)))
(assert (not (= x34 (_ bv8 8))))
(assert (not (= x34 x84)))
(assert (not (= x44 (_ bv3 8))))
(assert (not (= x44 x64)))
(assert (not (= x44 (_ bv8 8))))
(assert (not (= x44 x84)))
(assert (not (= (_ bv3 8) x64)))
(assert (not (= (_ bv3 8) (_ bv8 8))))
(assert (not (= (_ bv3 8) x84)))
(assert (not (= x64 (_ bv8 8))))
(assert (not (= x64 x84)))
(assert (not (= (_ bv8 8) x84)))
(assert (not (= x05 (_ bv2 8))))
(assert (not (= x05 x25)))
(assert (not (= x05 x35)))
(assert (not (= x05 (_ bv5 8))))
(assert (not (= x05 x55)))
(assert (not (= x05 x65)))
(assert (not (= x05 x75)))
(assert (not (= x05 x85)))
(assert (not (= (_ bv2 8) x25)))
(assert (not (= (_ bv2 8) x35)))
(assert (not (= (_ bv2 8) (_ bv5 8))))
(assert (not (= (_ bv2 8) x55)))
(assert (not (= (_ bv2 8) x65)))
(assert (not (= (_ bv2 8) x75)))
(assert (not (= (_ bv2 8) x85)))
(assert (not (= x25 x35)))
(assert (not (= x25 (_ bv5 8))))
(assert (not (= x25 x55)))
(assert (not (= x25 x65)))
(assert (not (= x25 x75)))
(assert (not (= x25 x85)))
(assert (not (= x35 (_ bv5 8))))
(assert (not (= x35 x55)))
(assert (not (= x35 x65)))
(assert (not (= x35 x75)))
(assert (not (= x35 x85)))
(assert (not (= (_ bv5 8) x55)))
(assert (not (= (_ bv5 8) x65)))
(assert (not (= (_ bv5 8) x75)))
(assert (not (= (_ bv5 8) x85)))
(assert (not (= x55 x65)))
(assert (not (= x55 x75)))
(assert (not (= x55 x85)))
(assert (not (= x65 x75)))
(assert (not (= x65 x85)))
(assert (not (= x75 x85)))
(assert (not (= x06 (_ bv8 8))))
(assert (not (= x06 x26)))
(assert (not (= x06 (_ bv6 8))))
(assert (not (= x06 x46)))
(assert (not (= x06 x56)))
(assert (not (= x06 (_ bv9 8))))
(assert (not (= x06 x76)))
(assert (not (= x06 x86)))
(assert (not (= (_ bv8 8) x26)))
(assert (not (= (_ bv8 8) (_ bv6 8))))
(assert (not (= (_ bv8 8) x46)))
(assert (not (= (_ bv8 8) x56)))
(assert (not (= (_ bv8 8) (_ bv9 8))))
(assert (not (= (_ bv8 8) x76)))
(assert (not (= (_ bv8 8) x86)))
(assert (not (= x26 (_ bv6 8))))
(assert (not (= x26 x46)))
(assert (not (= x26 x56)))
(assert (not (= x26 (_ bv9 8))))
(assert (not (= x26 x76)))
(assert (not (= x26 x86)))
(assert (not (= (_ bv6 8) x46)))
(assert (not (= (_ bv6 8) x56)))
(assert (not (= (_ bv6 8) (_ bv9 8))))
(assert (not (= (_ bv6 8) x76)))
(assert (not (= (_ bv6 8) x86)))
(assert (not (= x46 x56)))
(assert (not (= x46 (_ bv9 8))))
(assert (not (= x46 x76)))
(assert (not (= x46 x86)))
(assert (not (= x56 (_ bv9 8))))
(assert (not (= x56 x76)))
(assert (not (= x56 x86)))
(assert (not (= (_ bv9 8) x76)))
(assert (not (= (_ bv9 8) x86)))
(assert (not (= x76 x86)))
(assert (not (= (_ bv4 8) (_ bv3 8))))
(assert (not (= (_ bv4 8) (_ bv1 8))))
(assert (not (= (_ bv4 8) x37)))
(assert (not (= (_ bv4 8) x47)))
(assert (not (= (_ bv4 8) (_ bv7 8))))
(assert (not (= (_ bv4 8) x67)))
(assert (not (= (_ bv4 8) x77)))
(assert (not (= (_ bv4 8) (_ bv2 8))))
(assert (not (= (_ bv3 8) (_ bv1 8))))
(assert (not (= (_ bv3 8) x37)))
(assert (not (= (_ bv3 8) x47)))
(assert (not (= (_ bv3 8) (_ bv7 8))))
(assert (not (= (_ bv3 8) x67)))
(assert (not (= (_ bv3 8) x77)))
(assert (not (= (_ bv3 8) (_ bv2 8))))
(assert (not (= (_ bv1 8) x37)))
(assert (not (= (_ bv1 8) x47)))
(assert (not (= (_ bv1 8) (_ bv7 8))))
(assert (not (= (_ bv1 8) x67)))
(assert (not (= (_ bv1 8) x77)))
(assert (not (= (_ bv1 8) (_ bv2 8))))
(assert (not (= x37 x47)))
(assert (not (= x37 (_ bv7 8))))
(assert (not (= x37 x67)))
(assert (not (= x37 x77)))
(assert (not (= x37 (_ bv2 8))))
(assert (not (= x47 (_ bv7 8))))
(assert (not (= x47 x67)))
(assert (not (= x47 x77)))
(assert (not (= x47 (_ bv2 8))))
(assert (not (= (_ bv7 8) x67)))
(assert (not (= (_ bv7 8) x77)))
(assert (not (= (_ bv7 8) (_ bv2 8))))
(assert (not (= x67 x77)))
(assert (not (= x67 (_ bv2 8))))
(assert (not (= x77 (_ bv2 8))))
(assert (not (= x08 x18)))
(assert (not (= x08 (_ bv2 8))))
(assert (not (= x08 (_ bv4 8))))
(assert (not (= x08 (_ bv8 8))))
(assert (not (= x08 x58)))
(assert (not (= x08 x68)))
(assert (not (= x08 (_ bv5 8))))
(assert (not (= x08 x88)))
(assert (not (= x18 (_ bv2 8))))
(assert (not (= x18 (_ bv4 8))))
(assert (not (= x18 (_ bv8 8))))
(assert (not (= x18 x58)))
(assert (not (= x18 x68)))
(assert (not (= x18 (_ bv5 8))))
(assert (not (= x18 x88)))
(assert (not (= (_ bv2 8) (_ bv4 8))))
(assert (not (= (_ bv2 8) (_ bv8 8))))
(assert (not (= (_ bv2 8) x58)))
(assert (not (= (_ bv2 8) x68)))
(assert (not (= (_ bv2 8) (_ bv5 8))))
(assert (not (= (_ bv2 8) x88)))
(assert (not (= (_ bv4 8) (_ bv8 8))))
(assert (not (= (_ bv4 8) x58)))
(assert (not (= (_ bv4 8) x68)))
(assert (not (= (_ bv4 8) (_ bv5 8))))
(assert (not (= (_ bv4 8) x88)))
(assert (not (= (_ bv8 8) x58)))
(assert (not (= (_ bv8 8) x68)))
(assert (not (= (_ bv8 8) (_ bv5 8))))
(assert (not (= (_ bv8 8) x88)))
(assert (not (= x58 x68)))
(assert (not (= x58 (_ bv5 8))))
(assert (not (= x58 x88)))
(assert (not (= x68 (_ bv5 8))))
(assert (not (= x68 x88)))
(assert (not (= (_ bv5 8) x88)))
(assert (not (= x00 (_ bv7 8))))
(assert (not (= x00 x02)))
(assert (not (= x00 x10)))
(assert (not (= x00 x11)))
(assert (not (= x00 (_ bv6 8))))
(assert (not (= x00 (_ bv9 8))))
(assert (not (= x00 x21)))
(assert (not (= x00 x22)))
(assert (not (= (_ bv7 8) x02)))
(assert (not (= (_ bv7 8) x10)))
(assert (not (= (_ bv7 8) x11)))
(assert (not (= (_ bv7 8) (_ bv6 8))))
(assert (not (= (_ bv7 8) (_ bv9 8))))
(assert (not (= (_ bv7 8) x21)))
(assert (not (= (_ bv7 8) x22)))
(assert (not (= x02 x10)))
(assert (not (= x02 x11)))
(assert (not (= x02 (_ bv6 8))))
(assert (not (= x02 (_ bv9 8))))
(assert (not (= x02 x21)))
(assert (not (= x02 x22)))
(assert (not (= x10 x11)))
(assert (not (= x10 (_ bv6 8))))
(assert (not (= x10 (_ bv9 8))))
(assert (not (= x10 x21)))
(assert (not (= x10 x22)))
(assert (not (= x11 (_ bv6 8))))
(assert (not (= x11 (_ bv9 8))))
(assert (not (= x11 x21)))
(assert (not (= x11 x22)))
(assert (not (= (_ bv6 8) (_ bv9 8))))
(assert (not (= (_ bv6 8) x21)))
(assert (not (= (_ bv6 8) x22)))
(assert (not (= (_ bv9 8) x21)))
(assert (not (= (_ bv9 8) x22)))
(assert (not (= x21 x22)))
(assert (not (= (_ bv3 8) x04)))
(assert (not (= (_ bv3 8) x05)))
(assert (not (= (_ bv3 8) (_ bv1 8))))
(assert (not (= (_ bv3 8) x14)))
(assert (not (= (_ bv3 8) (_ bv2 8))))
(assert (not (= (_ bv3 8) x23)))
(assert (not (= (_ bv3 8) (_ bv4 8))))
(assert (not (= (_ bv3 8) x25)))
(assert (not (= x04 x05)))
(assert (not (= x04 (_ bv1 8))))
(assert (not (= x04 x14)))
(assert (not (= x04 (_ bv2 8))))
(assert (not (= x04 x23)))
(assert (not (= x04 (_ bv4 8))))
(assert (not (= x04 x25)))
(assert (not (= x05 (_ bv1 8))))
(assert (not (= x05 x14)))
(assert (not (= x05 (_ bv2 8))))
(assert (not (= x05 x23)))
(assert (not (= x05 (_ bv4 8))))
(assert (not (= x05 x25)))
(assert (not (= (_ bv1 8) x14)))
(assert (not (= (_ bv1 8) (_ bv2 8))))
(assert (not (= (_ bv1 8) x23)))
(assert (not (= (_ bv1 8) (_ bv4 8))))
(assert (not (= (_ bv1 8) x25)))
(assert (not (= x14 (_ bv2 8))))
(assert (not (= x14 x23)))
(assert (not (= x14 (_ bv4 8))))
(assert (not (= x14 x25)))
(assert (not (= (_ bv2 8) x23)))
(assert (not (= (_ bv2 8) (_ bv4 8))))
(assert (not (= (_ bv2 8) x25)))
(assert (not (= x23 (_ bv4 8))))
(assert (not (= x23 x25)))
(assert (not (= (_ bv4 8) x25)))
(assert (not (= x06 (_ bv4 8))))
(assert (not (= x06 x08)))
(assert (not (= x06 (_ bv8 8))))
(assert (not (= x06 (_ bv3 8))))
(assert (not (= x06 x18)))
(assert (not (= x06 x26)))
(assert (not (= x06 (_ bv1 8))))
(assert (not (= x06 (_ bv2 8))))
(assert (not (= (_ bv4 8) x08)))
(assert (not (= (_ bv4 8) (_ bv8 8))))
(assert (not (= (_ bv4 8) (_ bv3 8))))
(assert (not (= (_ bv4 8) x18)))
(assert (not (= (_ bv4 8) x26)))
(assert (not (= (_ bv4 8) (_ bv1 8))))
(assert (not (= (_ bv4 8) (_ bv2 8))))
(assert (not (= x08 (_ bv8 8))))
(assert (not (= x08 (_ bv3 8))))
(assert (not (= x08 x18)))
(assert (not (= x08 x26)))
(assert (not (= x08 (_ bv1 8))))
(assert (not (= x08 (_ bv2 8))))
(assert (not (= (_ bv8 8) (_ bv3 8))))
(assert (not (= (_ bv8 8) x18)))
(assert (not (= (_ bv8 8) x26)))
(assert (not (= (_ bv8 8) (_ bv1 8))))
(assert (not (= (_ bv8 8) (_ bv2 8))))
(assert (not (= (_ bv3 8) x18)))
(assert (not (= (_ bv3 8) x26)))
(assert (not (= (_ bv3 8) (_ bv1 8))))
(assert (not (= (_ bv3 8) (_ bv2 8))))
(assert (not (= x18 x26)))
(assert (not (= x18 (_ bv1 8))))
(assert (not (= x18 (_ bv2 8))))
(assert (not (= x26 (_ bv1 8))))
(assert (not (= x26 (_ bv2 8))))
(assert (not (= (_ bv1 8) (_ bv2 8))))
(assert (not (= (_ bv8 8) x31)))
(assert (not (= (_ bv8 8) (_ bv2 8))))
(assert (not (= (_ bv8 8) (_ bv4 8))))
(assert (not (= (_ bv8 8) (_ bv1 8))))
(assert (not (= (_ bv8 8) x42)))
(assert (not (= (_ bv8 8) x50)))
(assert (not (= (_ bv8 8) x51)))
(assert (not (= (_ bv8 8) x52)))
(assert (not (= x31 (_ bv2 8))))
(assert (not (= x31 (_ bv4 8))))
(assert (not (= x31 (_ bv1 8))))
(assert (not (= x31 x42)))
(assert (not (= x31 x50)))
(assert (not (= x31 x51)))
(assert (not (= x31 x52)))
(assert (not (= (_ bv2 8) (_ bv4 8))))
(assert (not (= (_ bv2 8) (_ bv1 8))))
(assert (not (= (_ bv2 8) x42)))
(assert (not (= (_ bv2 8) x50)))
(assert (not (= (_ bv2 8) x51)))
(assert (not (= (_ bv2 8) x52)))
(assert (not (= (_ bv4 8) (_ bv1 8))))
(assert (not (= (_ bv4 8) x42)))
(assert (not (= (_ bv4 8) x50)))
(assert (not (= (_ bv4 8) x51)))
(assert (not (= (_ bv4 8) x52)))
(assert (not (= (_ bv1 8) x42)))
(assert (not (= (_ bv1 8) x50)))
(assert (not (= (_ bv1 8) x51)))
(assert (not (= (_ bv1 8) x52)))
(assert (not (= x42 x50)))
(assert (not (= x42 x51)))
(assert (not (= x42 x52)))
(assert (not (= x50 x51)))
(assert (not (= x50 x52)))
(assert (not (= x51 x52)))
(assert (not (= (_ bv9 8) x34)))
(assert (not (= (_ bv9 8) x35)))
(assert (not (= (_ bv9 8) x43)))
(assert (not (= (_ bv9 8) x44)))
(assert (not (= (_ bv9 8) (_ bv5 8))))
(assert (not (= (_ bv9 8) x53)))
(assert (not (= (_ bv9 8) (_ bv3 8))))
(assert (not (= (_ bv9 8) x55)))
(assert (not (= x34 x35)))
(assert (not (= x34 x43)))
(assert (not (= x34 x44)))
(assert (not (= x34 (_ bv5 8))))
(assert (not (= x34 x53)))
(assert (not (= x34 (_ bv3 8))))
(assert (not (= x34 x55)))
(assert (not (= x35 x43)))
(assert (not (= x35 x44)))
(assert (not (= x35 (_ bv5 8))))
(assert (not (= x35 x53)))
(assert (not (= x35 (_ bv3 8))))
(assert (not (= x35 x55)))
(assert (not (= x43 x44)))
(assert (not (= x43 (_ bv5 8))))
(assert (not (= x43 x53)))
(assert (not (= x43 (_ bv3 8))))
(assert (not (= x43 x55)))
(assert (not (= x44 (_ bv5 8))))
(assert (not (= x44 x53)))
(assert (not (= x44 (_ bv3 8))))
(assert (not (= x44 x55)))
(assert (not (= (_ bv5 8) x53)))
(assert (not (= (_ bv5 8) (_ bv3 8))))
(assert (not (= (_ bv5 8) x55)))
(assert (not (= x53 (_ bv3 8))))
(assert (not (= x53 x55)))
(assert (not (= (_ bv3 8) x55)))
(assert (not (= (_ bv6 8) x37)))
(assert (not (= (_ bv6 8) (_ bv4 8))))
(assert (not (= (_ bv6 8) x46)))
(assert (not (= (_ bv6 8) x47)))
(assert (not (= (_ bv6 8) (_ bv8 8))))
(assert (not (= (_ bv6 8) x56)))
(assert (not (= (_ bv6 8) (_ bv7 8))))
(assert (not (= (_ bv6 8) x58)))
(assert (not (= x37 (_ bv4 8))))
(assert (not (= x37 x46)))
(assert (not (= x37 x47)))
(assert (not (= x37 (_ bv8 8))))
(assert (not (= x37 x56)))
(assert (not (= x37 (_ bv7 8))))
(assert (not (= x37 x58)))
(assert (not (= (_ bv4 8) x46)))
(assert (not (= (_ bv4 8) x47)))
(assert (not (= (_ bv4 8) (_ bv8 8))))
(assert (not (= (_ bv4 8) x56)))
(assert (not (= (_ bv4 8) (_ bv7 8))))
(assert (not (= (_ bv4 8) x58)))
(assert (not (= x46 x47)))
(assert (not (= x46 (_ bv8 8))))
(assert (not (= x46 x56)))
(assert (not (= x46 (_ bv7 8))))
(assert (not (= x46 x58)))
(assert (not (= x47 (_ bv8 8))))
(assert (not (= x47 x56)))
(assert (not (= x47 (_ bv7 8))))
(assert (not (= x47 x58)))
(assert (not (= (_ bv8 8) x56)))
(assert (not (= (_ bv8 8) (_ bv7 8))))
(assert (not (= (_ bv8 8) x58)))
(assert (not (= x56 (_ bv7 8))))
(assert (not (= x56 x58)))
(assert (not (= (_ bv7 8) x58)))
(assert (not (= (_ bv3 8) (_ bv5 8))))
(assert (not (= (_ bv3 8) x62)))
(assert (not (= (_ bv3 8) x70)))
(assert (not (= (_ bv3 8) x71)))
(assert (not (= (_ bv3 8) x72)))
(assert (not (= (_ bv3 8) (_ bv1 8))))
(assert (not (= (_ bv3 8) x81)))
(assert (not (= (_ bv3 8) x82)))
(assert (not (= (_ bv5 8) x62)))
(assert (not (= (_ bv5 8) x70)))
(assert (not (= (_ bv5 8) x71)))
(assert (not (= (_ bv5 8) x72)))
(assert (not (= (_ bv5 8) (_ bv1 8))))
(assert (not (= (_ bv5 8) x81)))
(assert (not (= (_ bv5 8) x82)))
(assert (not (= x62 x70)))
(assert (not (= x62 x71)))
(assert (not (= x62 x72)))
(assert (not (= x62 (_ bv1 8))))
(assert (not (= x62 x81)))
(assert (not (= x62 x82)))
(assert (not (= x70 x71)))
(assert (not (= x70 x72)))
(assert (not (= x70 (_ bv1 8))))
(assert (not (= x70 x81)))
(assert (not (= x70 x82)))
(assert (not (= x71 x72)))
(assert (not (= x71 (_ bv1 8))))
(assert (not (= x71 x81)))
(assert (not (= x71 x82)))
(assert (not (= x72 (_ bv1 8))))
(assert (not (= x72 x81)))
(assert (not (= x72 x82)))
(assert (not (= (_ bv1 8) x81)))
(assert (not (= (_ bv1 8) x82)))
(assert (not (= x81 x82)))
(assert (not (= (_ bv6 8) x64)))
(assert (not (= (_ bv6 8) x65)))
(assert (not (= (_ bv6 8) (_ bv4 8))))
(assert (not (= (_ bv6 8) (_ bv8 8))))
(assert (not (= (_ bv6 8) x75)))
(assert (not (= (_ bv6 8) (_ bv7 8))))
(assert (not (= (_ bv6 8) x84)))
(assert (not (= (_ bv6 8) x85)))
(assert (not (= x64 x65)))
(assert (not (= x64 (_ bv4 8))))
(assert (not (= x64 (_ bv8 8))))
(assert (not (= x64 x75)))
(assert (not (= x64 (_ bv7 8))))
(assert (not (= x64 x84)))
(assert (not (= x64 x85)))
(assert (not (= x65 (_ bv4 8))))
(assert (not (= x65 (_ bv8 8))))
(assert (not (= x65 x75)))
(assert (not (= x65 (_ bv7 8))))
(assert (not (= x65 x84)))
(assert (not (= x65 x85)))
(assert (not (= (_ bv4 8) (_ bv8 8))))
(assert (not (= (_ bv4 8) x75)))
(assert (not (= (_ bv4 8) (_ bv7 8))))
(assert (not (= (_ bv4 8) x84)))
(assert (not (= (_ bv4 8) x85)))
(assert (not (= (_ bv8 8) x75)))
(assert (not (= (_ bv8 8) (_ bv7 8))))
(assert (not (= (_ bv8 8) x84)))
(assert (not (= (_ bv8 8) x85)))
(assert (not (= x75 (_ bv7 8))))
(assert (not (= x75 x84)))
(assert (not (= x75 x85)))
(assert (not (= (_ bv7 8) x84)))
(assert (not (= (_ bv7 8) x85)))
(assert (not (= x84 x85)))
(assert (not (= (_ bv9 8) x67)))
(assert (not (= (_ bv9 8) x68)))
(assert (not (= (_ bv9 8) x76)))
(assert (not (= (_ bv9 8) x77)))
(assert (not (= (_ bv9 8) (_ bv5 8))))
(assert (not (= (_ bv9 8) x86)))
(assert (not (= (_ bv9 8) (_ bv2 8))))
(assert (not (= (_ bv9 8) x88)))
(assert (not (= x67 x68)))
(assert (not (= x67 x76)))
(assert (not (= x67 x77)))
(assert (not (= x67 (_ bv5 8))))
(assert (not (= x67 x86)))
(assert (not (= x67 (_ bv2 8))))
(assert (not (= x67 x88)))
(assert (not (= x68 x76)))
(assert (not (= x68 x77)))
(assert (not (= x68 (_ bv5 8))))
(assert (not (= x68 x86)))
(assert (not (= x68 (_ bv2 8))))
(assert (not (= x68 x88)))
(assert (not (= x76 x77)))
(assert (not (= x76 (_ bv5 8))))
(assert (not (= x76 x86)))
(assert (not (= x76 (_ bv2 8))))
(assert (not (= x76 x88)))
(assert (not (= x77 (_ bv5 8))))
(assert (not (= x77 x86)))
(assert (not (= x77 (_ bv2 8))))
(assert (not (= x77 x88)))
(assert (not (= (_ bv5 8) x86)))
(assert (not (= (_ bv5 8) (_ bv2 8))))
(assert (not (= (_ bv5 8) x88)))
(assert (not (= x86 (_ bv2 8))))
(assert (not (= x86 x88)))
(assert (not (= (_ bv2 8) x88)))
(check-sat)
(exit)
